% File represents an instance of a Composite Structure problem to be solved by a CP framework
% Created on 2025-03-26 10:41:48.292
T = 50;
n = 36;
m = 60;
edges = [(1, 2),
(7, 8),
(13, 14),
(19, 20),
(26, 25),
(32, 31),
(2, 3),
(8, 9),
(14, 15),
(20, 21),
(26, 27),
(32, 33),
(3, 4),
(9, 10),
(16, 15),
(22, 21),
(27, 28),
(33, 34),
(5, 4),
(11, 10),
(17, 16),
(23, 22),
(28, 29),
(34, 35),
(6, 5),
(12, 11),
(17, 18),
(23, 24),
(29, 30),
(36, 35),
(1, 7),
(7, 13),
(13, 19),
(19, 25),
(31, 25),
(2, 8),
(8, 14),
(14, 20),
(26, 20),
(26, 32),
(3, 9),
(9, 15),
(15, 21),
(27, 21),
(27, 33),
(4, 10),
(16, 10),
(16, 22),
(28, 22),
(28, 34),
(5, 11),
(17, 11),
(17, 23),
(23, 29),
(29, 35),
(6, 12),
(12, 18),
(18, 24),
(24, 30),
(36, 30)];
counts = [|8, 18, 8, 16,
|8, 14, 8, 14,
|6, 12, 6, 14,
|6, 10, 6, 12,
|6, 10, 6, 14,
|6, 14, 6, 14,
|8, 16, 8, 12,
|8, 12, 8, 10,
|6, 10, 6, 10,
|4, 10, 4, 10,
|6, 10, 6, 10,
|6, 14, 6, 12,
|6, 16, 6, 12,
|6, 12, 6, 10,
|6, 6, 6, 10,
|6, 10, 6, 10,
|6, 10, 6, 12,
|6, 8, 6, 12,
|6, 14, 6, 10,
|6, 8, 6, 10,
|6, 4, 6, 10,
|6, 6, 6, 10,
|6, 6, 6, 12,
|6, 4, 6, 12,
|6, 10, 6, 8,
|6, 10, 6, 14,
|6, 6, 6, 14,
|6, 6, 6, 12,
|4, 6, 4, 12,
|4, 4, 4, 10,
|6, 10, 6, 10,
|6, 10, 6, 12,
|6, 6, 6, 12,
|4, 6, 4, 12,
|4, 6, 4, 8,
|4, 6, 4, 10|];
